100 94318

 95 762
553 114
926 26
470 783
661 499
716 508
779 545
514 62
690 229
937 815
194 607
482 35
899 705
336 456
435 588
196 891
855 502
249 761
498 595
212 25
665 569
670 32
466 831
874 12
651 319
221 845
273 604
154 1
249 435
279 838
440 136
948 196
816 133
276 985
514 86
88 476
799 807
923 791
642 324
505 180
590 516
772 638
241 175
653 763
740 21
675 997
236 952
128 105
503 578
200 443
962 775
902 49
543 528
502 145
650 340
492 762
21 855
234 354
714 75
791 802
643 929
416 794
148 578
970 637
29 319
361 87
308 553
883 982
942 698
162 866
869 892
852 847
61 778
125 783
456 42
71 93
838 697
907 727
876 507
466 529
243 956
490 265
761 626
221 292
473 969
959 464
533 804
494 560
899 819
82 97
856 887
879 95
998 326
522 74
923 336
12 68
263 758
657 918
449 77
192 208
